14
-1 2 4 93 50 85 71 21 66 31 66 66 79 91
49 -1 19 89 92 37 34 10 17 12 80 16 18 25
72 57 -1 79 74 53 99 3 18 77 57 32 61 85
80 36 59 -1 44 18 85 30 33 99 84 77 78 93
85 76 9 22 -1 60 15 11 59 10 99 58 81 72
92 51 82 49 67 -1 57 12 64 88 70 52 84 27
1 71 41 92 83 45 -1 44 45 9 56 93 49 14
24 73 87 36 89 52 9 -1 60 96 90 93 86 46
20 83 32 60 76 3 69 11 -1 85 71 6 14 38
92 97 87 69 31 4 88 65 70 -1 10 37 70 51
71 38 68 48 3 92 8 1 91 37 -1 65 9 61
63 94 70 74 47 15 82 67 82 58 98 -1 16 48
62 90 50 59 24 78 97 81 87 54 64 94 -1 33
89 99 1 9 69 47 49 81 29 93 59 91 17 -1
158
0 -> 1 -> 9 -> 10 -> 4 -> 2 -> 8 -> 11 -> 12 -> 13 -> 3 -> 5 -> 7 -> 6 -> 0
